(set-logic FO)
(declare-sort Term 0)
(declare-fun p (Term) Bool)
(declare-fun q (Term) Bool)
(declare-fun r (Term) Bool)
(declare-fun s (Term) Bool)
(set-info :status unsat)
(assert (<=> (exists ((x Term)) (p x)) (exists ((x Term)) (q x))))
(assert (forall ((y Term) (x Term)) (=> (and (p x) (q y)) (<=> (r x) (s y)))))
(assert (not (<=> (forall ((x Term)) (=> (p x) (r x))) (forall ((x Term)) (=> (q x) (s x))))))
(check-sat)
(exit)
